NAME : zqloutput/eax-hard-simple-rescaleandround/50-12.tsp
TYPE : TSP
DIMENSION : 50
EDGE_WEIGHT_TYPE : EUC_2D
NODE_COORD_SECTION
1 558763 855192
2 972858 506948
3 121806 575123
4 455945 279948
5 848077 68638
6 43905 644103
7 104268 675868
8 844775 687577
9 785520 382568
10 733628 688994
11 871619 228640
12 851242 622269
13 7129 978471
14 307469 914108
15 767238 347069
16 700092 84514
17 303442 634311
18 961060 340241
19 546597 937843
20 786950 794292
21 113317 614328
22 443930 206497
23 941886 979207
24 303645 972344
25 347005 827888
26 689480 433916
27 84656 547732
28 624717 306426
29 360876 468026
30 270867 259202
31 642148 526815
32 457713 189715
33 698686 921413
34 13687 167859
35 768346 841798
36 680734 650876
37 424364 929439
38 396361 699589
39 38331 773906
40 405460 244437
41 964004 966582
42 846734 757611
43 508101 93545
44 830014 763627
45 870160 219898
46 68835 828363
47 324512 66848
48 328578 164607
49 760310 86352
50 999813 874519
EOF
